NAME          NMGTPLAN
ROWS
 G  TOTN
 G  N
 G  TOTP
 G  P
 G  TOTK
 G  K
 G  S
 G  MG
 G  B
 G  ZN
 G  DEN
 E  WT
 N  COST
 N  PRICE
COLUMNS
*234567890123456789012345678901234567890123456789012345678901
              COST          0.000000   PRICE         0.000000   
              SCALE         1.000000   
    I103400   TOTN          0.100000   TOTP          0.340000   
    I103400   COST          1.111500   PRICE         1.389400   
    I103400   SCALE        11.700000   
    I072107   TOTN          0.070000   TOTP          0.210000   
    I072107   TOTK          0.070000   COST          0.090000   
    I072107   PRICE         0.125000   SCALE         1.000000   
    I300000   TOTN          0.300000   COST          0.055000   
    I300000   PRICE         0.068800   SCALE         1.000000   
              COST          0.000000   PRICE         0.000000   
              SCALE         1.000000   
    LASSO     DEN           0.013368   WT            1.000000   
    LASSO     COST          0.562500   PRICE         0.750000   
    LASSO     SCALE         2.500000   
              COST          0.000000   PRICE         0.000000   
              SCALE         1.000000   
    MANURE    TOTN          0.023000   TOTP          0.033000   
    MANURE    TOTK          0.030000   COST          0.000000   
    MANURE    PRICE         0.000000   SCALE      2000.000000   
    DAIRY     TOTN          0.006000   TOTP          0.002000   
    DAIRY     TOTK          0.005000   COST          0.000000   
    DAIRY     PRICE         0.000000   SCALE      2000.000000   
    DUCK      TOTN          0.011000   TOTP          0.015000   
    DUCK      TOTK          0.005000   COST          0.000000   
    DUCK      PRICE         0.000000   SCALE      2000.000000   
    GOOSE     TOTN          0.011000   TOTP          0.006000   
    GOOSE     TOTK          0.005000   COST          0.000000   
    GOOSE     PRICE         0.000000   SCALE      2000.000000   
    HEN       TOTN          0.011000   TOTP          0.009000   
    HEN       TOTK          0.005000   COST          0.000000   
    HEN       PRICE         0.000000   SCALE      2000.000000   
    HOG       TOTN          0.006000   TOTP          0.003000   
    HOG       TOTK          0.005000   COST          0.000000   
    HOG       PRICE         0.000000   SCALE      2000.000000   
    HORSE     TOTN          0.007000   TOTP          0.003000   
    HORSE     TOTK          0.005000   COST          0.000000   
    HORSE     PRICE         0.000000   SCALE      2000.000000   
    SHEEP     TOTN          0.010000   TOTP          0.008000   
    SHEEP     TOTK          0.004000   COST          0.000000   
    SHEEP     PRICE         0.000000   SCALE      2000.000000   
    STEER     TOTN          0.006000   TOTP          0.004000   
    STEER     TOTK          0.006000   COST          0.000000   
    STEER     PRICE         0.000000   SCALE      2000.000000   
    TURKEY    TOTN          0.013000   TOTP          0.007000   
    TURKEY    TOTK          0.005000   COST          0.000000   
    TURKEY    PRICE         0.000000   SCALE      2000.000000   
    I184600   TOTN          0.180000   N             0.180000   
    I184600   TOTP          0.460000   P             0.460000   
    I184600   DEN           0.016000   WT            1.000000   
    I184600   COST        183.000000   PRICE       228.750000   
    I184600   SCALE      2000.000000   
    I115200   TOTN          0.110000   N             0.110000   
    I115200   TOTP          0.520000   P             0.520000   
    I115200   DEN           0.017986   WT            1.000000   
    I115200   COST        183.000000   PRICE       228.750000   
    I115200   SCALE      2000.000000   
    I004600   TOTP          0.460000   P             0.460000   
    I004600   DEN           0.014306   WT            1.000000   
    I004600   COST        140.000000   PRICE       175.000000   
    I004600   SCALE      2000.000000   
    I460000   TOTN          0.460000   N             0.460000   
    I460000   DEN           0.020833   WT            1.000000   
    I460000   COST        160.000000   PRICE       200.000000   
    I460000   SCALE      2000.000000   
    I210000   TOTN          0.210000   N             0.210000   
    I210000   S             0.240000   DEN           0.020408   
    I210000   WT            1.000000   COST        110.000000   
    I210000   PRICE       137.500000   SCALE      2000.000000   
    I000060   TOTK          0.600000   K             0.600000   
    I000060   DEN           0.015408   WT            1.000000   
    I000060   COST         90.000000   PRICE       112.500000   
    I000060   SCALE      2000.000000   
    I000022   TOTK          0.220000   K             0.220000   
    I000022   S             0.220000   MG            0.110000   
    I000022   DEN           0.010246   WT            1.000000   
    I000022   COST        110.300000   PRICE       137.875000   
    I000022   SCALE      2000.000000   
    I20S36Z   S             0.200000   ZN            0.360000   
    I20S36Z   DEN           0.013004   WT            1.000000   
    I20S36Z   COST        400.000000   PRICE       500.000000   
    I20S36Z   SCALE      2000.000000   
    I14B000   B             0.143000   DEN           0.021882   
    I14B000   WT            1.000000   COST        420.000000   
    I14B000   PRICE       525.000000   SCALE      2000.000000   
    I000000   DEN           0.011111   WT            1.000000   
    I000000   COST         30.000000   PRICE        37.500000   
    I000000   SCALE      2000.000000   
    PRODUCT   WT           -1.000000   COST          0.000000   
    PRODUCT   PRICE         0.000000   SCALE         1.000000   
*234567890123456789012345678901234567890123456789012